c RoundingSat 2
c branch HEAD
c commit c548e10
c #variables 32 #constraints 288
c #Conflicts:       1000 | #Constraints:       1287
c cpu time 0.026286 s
c deterministic time 2073846 2.07e+06
c optimization time 1.1e-05 s
c total solve time 0.025563 s
c core-guided solve time 0 s
c propagation time 0.014781 s
c conflict analysis time 0.008386 s
c propagations 20826
c resolve steps 7345
c decisions 2554
c conflicts 1903
c restarts 12
c inprocessing phases 0
c input clauses 287
c input cardinalities 1
c input general constraints 0
c input average constraint length 9.39
c input average constraint degree 1.07
c learned clauses 1092
c learned cardinalities 297
c learned general constraints 514
c learned average constraint length 12.88
c learned average constraint degree 4.51
c watched constraints 187
c counting constraints 327
c gcd simplifications 53
c detected cardinalities 64
c weakened non-implied lits 10669
c weakened non-implying lits 18
c original variables 32
c clausal propagations 4950
c cardinality propagations 8330
c watched propagations 336
c counting propagations 4022
c watch lookups 680131
c watch backjump lookups 375308
c watch checks 708921
c propagation checks 152922
c constraint additions 107900
c trail pops 25283
c formula constraints 288
c learned constraints 1903
c bound constraints 0
c core-guided constraints 0
c encountered formula constraints 4017
c encountered learned constraints 5231
c encountered bound constraints 0
c encountered core-guided constraints 0
c LP total time 0 s
c LP solve time 0 s
c LP constraints added 0
c LP constraints removed 0
c LP pivots internal 0
c LP pivots root 0
c LP calls 0
c LP optimalities 0
c LP no pivot count 0
c LP infeasibilities 0
c LP valid Farkas constraints 0
c LP learned Farkas constraints 0
c LP basis resets 0
c LP cycling count 0
c LP singular count 0
c LP no primal count 0
c LP no farkas count 0
c LP other issue count 0
c LP Gomory cuts 0
c LP learned cuts 0
c LP deleted cuts 0
c LP encountered Gomory constraints 0
c LP encountered Farkas constraints 0
c LP encountered learned Farkas constraints 0
c CG auxiliary variables introduced 0
c CG solutions found 0
c CG cores constructed 0
c CG core cardinality constraints returned 0
c CG unit cores 0
c CG single cores 0
c CG blocks removed during cardinality reduction 0
c CG first core best 0
c CG decision core best 0
c CG core reduction tie 0
c CG core degree average 0.00
c CG core slack average 0.00
s SATISFIABLE
v x1 -x2 -x3 -x4 -x5 -x6 -x7 -x8 x9 -x10 x11 -x12 x13 -x14 x15 -x16 x17 -x18 -x19 -x20 -x21 x22 -x23 -x24 -x25 -x26 x27 x28 -x29 -x30 x31 -x32
